Comment                                 
   30.0000000000000     
     1.0000000000000000    0.0000000000000000    0.0000000000000000
    -0.5000000000000000    0.8660250000000000    0.0000000000000000
     0.0000000000000000    0.0000000000000000    1.0000000000000000
   B    N 
   144   143
Direct
  0.0000000000000000  0.0000000000000000  0.0000000000000000
  0.0000000000000000  0.0833333360000026  0.0000000000000000
  0.0000000000000000  0.1666666719999981  0.0000000000000000
  0.0000000000000000  0.2500000000000000  0.0000000000000000
  0.0000000000000000  0.3333333429999996  0.0000000000000000
  0.0000000000000000  0.4166666570000004  0.0000000000000000
  0.0000000000000000  0.5000000000000000  0.0000000000000000
  0.0000000000000000  0.5833333129999971  0.0000000000000000
  0.0000000000000000  0.6666666870000029  0.0000000000000000
  0.0000000000000000  0.7500000000000000  0.0000000000000000
  0.0000000000000000  0.8333333129999971  0.0000000000000000
  0.0000000000000000  0.9166666870000029  0.0000000000000000
  0.0833333360000026  0.0000000000000000  0.0000000000000000
  0.0833333360000026  0.0833333360000026  0.0000000000000000
  0.0833333360000026  0.1666666719999981  0.0000000000000000
  0.0833333360000026  0.2500000000000000  0.0000000000000000
  0.0833333360000026  0.3333333429999996  0.0000000000000000
  0.0833333360000026  0.4166666570000004  0.0000000000000000
  0.0833333360000026  0.5000000000000000  0.0000000000000000
  0.0833333360000026  0.5833333129999971  0.0000000000000000
  0.0833333360000026  0.6666666870000029  0.0000000000000000
  0.0833333360000026  0.7500000000000000  0.0000000000000000
  0.0833333360000026  0.8333333129999971  0.0000000000000000
  0.0833333360000026  0.9166666870000029  0.0000000000000000
  0.1666666719999981  0.0000000000000000  0.0000000000000000
  0.1666666719999981  0.0833333360000026  0.0000000000000000
  0.1666666719999981  0.1666666719999981  0.0000000000000000
  0.1666666719999981  0.2500000000000000  0.0000000000000000
  0.1666666719999981  0.3333333429999996  0.0000000000000000
  0.1666666719999981  0.4166666570000004  0.0000000000000000
  0.1666666719999981  0.5000000000000000  0.0000000000000000
  0.1666666719999981  0.5833333129999971  0.0000000000000000
  0.1666666719999981  0.6666666870000029  0.0000000000000000
  0.1666666719999981  0.7500000000000000  0.0000000000000000
  0.1666666719999981  0.8333333129999971  0.0000000000000000
  0.1666666719999981  0.9166666870000029  0.0000000000000000
  0.2500000000000000  0.0000000000000000  0.0000000000000000
  0.2500000000000000  0.0833333360000026  0.0000000000000000
  0.2500000000000000  0.1666666719999981  0.0000000000000000
  0.2500000000000000  0.2500000000000000  0.0000000000000000
  0.2500000000000000  0.3333333429999996  0.0000000000000000
  0.2500000000000000  0.4166666570000004  0.0000000000000000
  0.2500000000000000  0.5000000000000000  0.0000000000000000
  0.2500000000000000  0.5833333129999971  0.0000000000000000
  0.2500000000000000  0.6666666870000029  0.0000000000000000
  0.2500000000000000  0.7500000000000000  0.0000000000000000
  0.2500000000000000  0.8333333129999971  0.0000000000000000
  0.2500000000000000  0.9166666870000029  0.0000000000000000
  0.3333333429999996  0.0000000000000000  0.0000000000000000
  0.3333333429999996  0.0833333360000026  0.0000000000000000
  0.3333333429999996  0.1666666719999981  0.0000000000000000
  0.3333333429999996  0.2500000000000000  0.0000000000000000
  0.3333333429999996  0.3333333429999996  0.0000000000000000
  0.3333333429999996  0.4166666570000004  0.0000000000000000
  0.3333333429999996  0.5000000000000000  0.0000000000000000
  0.3333333429999996  0.5833333129999971  0.0000000000000000
  0.3333333429999996  0.6666666870000029  0.0000000000000000
  0.3333333429999996  0.7500000000000000  0.0000000000000000
  0.3333333429999996  0.8333333129999971  0.0000000000000000
  0.3333333429999996  0.9166666870000029  0.0000000000000000
  0.4166666570000004  0.0000000000000000  0.0000000000000000
  0.4166666570000004  0.0833333360000026  0.0000000000000000
  0.4166666570000004  0.1666666719999981  0.0000000000000000
  0.4166666570000004  0.2500000000000000  0.0000000000000000
  0.4166666570000004  0.3333333429999996  0.0000000000000000
  0.4166666570000004  0.4166666570000004  0.0000000000000000
  0.4166666570000004  0.5000000000000000  0.0000000000000000
  0.4166666570000004  0.5833333129999971  0.0000000000000000
  0.4166666570000004  0.6666666870000029  0.0000000000000000
  0.4166666570000004  0.7500000000000000  0.0000000000000000
  0.4166666570000004  0.8333333129999971  0.0000000000000000
  0.4166666570000004  0.9166666870000029  0.0000000000000000
  0.5000000000000000  0.0000000000000000  0.0000000000000000
  0.5000000000000000  0.0833333360000026  0.0000000000000000
  0.5000000000000000  0.1666666719999981  0.0000000000000000
  0.5000000000000000  0.2500000000000000  0.0000000000000000
  0.5000000000000000  0.3333333429999996  0.0000000000000000
  0.5000000000000000  0.4166666570000004  0.0000000000000000
  0.5000000000000000  0.5000000000000000  0.0000000000000000
  0.5000000000000000  0.5833333129999971  0.0000000000000000
  0.5000000000000000  0.6666666870000029  0.0000000000000000
  0.5000000000000000  0.7500000000000000  0.0000000000000000
  0.5000000000000000  0.8333333129999971  0.0000000000000000
  0.5000000000000000  0.9166666870000029  0.0000000000000000
  0.5833333129999971  0.0000000000000000  0.0000000000000000
  0.5833333129999971  0.0833333360000026  0.0000000000000000
  0.5833333129999971  0.1666666719999981  0.0000000000000000
  0.5833333129999971  0.2500000000000000  0.0000000000000000
  0.5833333129999971  0.3333333429999996  0.0000000000000000
  0.5833333129999971  0.4166666570000004  0.0000000000000000
  0.5833333129999971  0.5000000000000000  0.0000000000000000
  0.5833333129999971  0.5833333129999971  0.0000000000000000
  0.5833333129999971  0.6666666870000029  0.0000000000000000
  0.5833333129999971  0.7500000000000000  0.0000000000000000
  0.5833333129999971  0.8333333129999971  0.0000000000000000
  0.5833333129999971  0.9166666870000029  0.0000000000000000
  0.6666666870000029  0.0000000000000000  0.0000000000000000
  0.6666666870000029  0.0833333360000026  0.0000000000000000
  0.6666666870000029  0.1666666719999981  0.0000000000000000
  0.6666666870000029  0.2500000000000000  0.0000000000000000
  0.6666666870000029  0.3333333429999996  0.0000000000000000
  0.6666666870000029  0.4166666570000004  0.0000000000000000
  0.6666666870000029  0.5000000000000000  0.0000000000000000
  0.6666666870000029  0.5833333129999971  0.0000000000000000
  0.6666666870000029  0.6666666870000029  0.0000000000000000
  0.6666666870000029  0.7500000000000000  0.0000000000000000
  0.6666666870000029  0.8333333129999971  0.0000000000000000
  0.6666666870000029  0.9166666870000029  0.0000000000000000
  0.7500000000000000  0.0000000000000000  0.0000000000000000
  0.7500000000000000  0.0833333360000026  0.0000000000000000
  0.7500000000000000  0.1666666719999981  0.0000000000000000
  0.7500000000000000  0.2500000000000000  0.0000000000000000
  0.7500000000000000  0.3333333429999996  0.0000000000000000
  0.7500000000000000  0.4166666570000004  0.0000000000000000
  0.7500000000000000  0.5000000000000000  0.0000000000000000
  0.7500000000000000  0.5833333129999971  0.0000000000000000
  0.7500000000000000  0.6666666870000029  0.0000000000000000
  0.7500000000000000  0.7500000000000000  0.0000000000000000
  0.7500000000000000  0.8333333129999971  0.0000000000000000
  0.7500000000000000  0.9166666870000029  0.0000000000000000
  0.8333333129999971  0.0000000000000000  0.0000000000000000
  0.8333333129999971  0.0833333360000026  0.0000000000000000
  0.8333333129999971  0.1666666719999981  0.0000000000000000
  0.8333333129999971  0.2500000000000000  0.0000000000000000
  0.8333333129999971  0.3333333429999996  0.0000000000000000
  0.8333333129999971  0.4166666570000004  0.0000000000000000
  0.8333333129999971  0.5000000000000000  0.0000000000000000
  0.8333333129999971  0.5833333129999971  0.0000000000000000
  0.8333333129999971  0.6666666870000029  0.0000000000000000
  0.8333333129999971  0.7500000000000000  0.0000000000000000
  0.8333333129999971  0.8333333129999971  0.0000000000000000
  0.8333333129999971  0.9166666870000029  0.0000000000000000
  0.9166666870000029  0.0000000000000000  0.0000000000000000
  0.9166666870000029  0.0833333360000026  0.0000000000000000
  0.9166666870000029  0.1666666719999981  0.0000000000000000
  0.9166666870000029  0.2500000000000000  0.0000000000000000
  0.9166666870000029  0.3333333429999996  0.0000000000000000
  0.9166666870000029  0.4166666570000004  0.0000000000000000
  0.9166666870000029  0.5000000000000000  0.0000000000000000
  0.9166666870000029  0.5833333129999971  0.0000000000000000
  0.9166666870000029  0.6666666870000029  0.0000000000000000
  0.9166666870000029  0.7500000000000000  0.0000000000000000
  0.9166666870000029  0.8333333129999971  0.0000000000000000
  0.9166666870000029  0.9166666870000029  0.0000000000000000
  0.0555555560000016  0.0277777780000008  0.0000000000000000
  0.0555555560000016  0.1111111120000032  0.0000000000000000
  0.0555555560000016  0.1944444330000010  0.0000000000000000
  0.0555555560000016  0.2777777610000030  0.0000000000000000
  0.0555555560000016  0.3611111339999979  0.0000000000000000
  0.0555555560000016  0.4444444479999987  0.0000000000000000
  0.0555555560000016  0.5277777909999983  0.0000000000000000
  0.0555555560000016  0.6111111040000026  0.0000000000000000
  0.0555555560000016  0.6944444180000033  0.0000000000000000
  0.0555555560000016  0.7777777310000005  0.0000000000000000
  0.0555555560000016  0.8611111040000026  0.0000000000000000
  0.0555555560000016  0.9444444180000033  0.0000000000000000
  0.1388888959999974  0.0277777780000008  0.0000000000000000
  0.1388888959999974  0.1111111120000032  0.0000000000000000
  0.1388888959999974  0.1944444330000010  0.0000000000000000
  0.1388888959999974  0.2777777610000030  0.0000000000000000
  0.1388888959999974  0.3611111339999979  0.0000000000000000
  0.1388888959999974  0.4444444479999987  0.0000000000000000
  0.1388888959999974  0.5277777909999983  0.0000000000000000
  0.1388888959999974  0.6111111040000026  0.0000000000000000
  0.1388888959999974  0.6944444180000033  0.0000000000000000
  0.1388888959999974  0.7777777310000005  0.0000000000000000
  0.1388888959999974  0.8611111040000026  0.0000000000000000
  0.1388888959999974  0.9444444180000033  0.0000000000000000
  0.2222222239999994  0.0277777780000008  0.0000000000000000
  0.2222222239999994  0.1111111120000032  0.0000000000000000
  0.2222222239999994  0.1944444330000010  0.0000000000000000
  0.2222222239999994  0.2777777610000030  0.0000000000000000
  0.2222222239999994  0.3611111339999979  0.0000000000000000
  0.2222222239999994  0.4444444479999987  0.0000000000000000
  0.2222222239999994  0.5277777909999983  0.0000000000000000
  0.2222222239999994  0.6111111040000026  0.0000000000000000
  0.2222222239999994  0.6944444180000033  0.0000000000000000
  0.2222222239999994  0.7777777310000005  0.0000000000000000
  0.2222222239999994  0.8611111040000026  0.0000000000000000
  0.2222222239999994  0.9444444180000033  0.0000000000000000
  0.3055555520000013  0.0277777780000008  0.0000000000000000
  0.3055555520000013  0.1111111120000032  0.0000000000000000
  0.3055555520000013  0.1944444330000010  0.0000000000000000
  0.3055555520000013  0.2777777610000030  0.0000000000000000
  0.3055555520000013  0.3611111339999979  0.0000000000000000
  0.3055555520000013  0.4444444479999987  0.0000000000000000
  0.3055555520000013  0.5277777909999983  0.0000000000000000
  0.3055555520000013  0.6111111040000026  0.0000000000000000
  0.3055555520000013  0.6944444180000033  0.0000000000000000
  0.3055555520000013  0.7777777310000005  0.0000000000000000
  0.3055555520000013  0.8611111040000026  0.0000000000000000
  0.3055555520000013  0.9444444180000033  0.0000000000000000
  0.3888888660000021  0.0277777780000008  0.0000000000000000
  0.3888888660000021  0.1111111120000032  0.0000000000000000
  0.3888888660000021  0.1944444330000010  0.0000000000000000
  0.3888888660000021  0.2777777610000030  0.0000000000000000
  0.3888888660000021  0.3611111339999979  0.0000000000000000
  0.3888888660000021  0.4444444479999987  0.0000000000000000
  0.3888888660000021  0.5277777909999983  0.0000000000000000
  0.3888888660000021  0.6111111040000026  0.0000000000000000
  0.3888888660000021  0.6944444180000033  0.0000000000000000
  0.3888888660000021  0.7777777310000005  0.0000000000000000
  0.3888888660000021  0.8611111040000026  0.0000000000000000
  0.3888888660000021  0.9444444180000033  0.0000000000000000
  0.4722222090000017  0.0277777780000008  0.0000000000000000
  0.4722222090000017  0.1111111120000032  0.0000000000000000
  0.4722222090000017  0.1944444330000010  0.0000000000000000
  0.4722222090000017  0.2777777610000030  0.0000000000000000
  0.4722222090000017  0.3611111339999979  0.0000000000000000
  0.4722222090000017  0.4444444479999987  0.0000000000000000
  0.4722222090000017  0.5277777909999983  0.0000000000000000
  0.4722222090000017  0.6111111040000026  0.0000000000000000
  0.4722222090000017  0.6944444180000033  0.0000000000000000
  0.4722222090000017  0.7777777310000005  0.0000000000000000
  0.4722222090000017  0.8611111040000026  0.0000000000000000
  0.4722222090000017  0.9444444180000033  0.0000000000000000
  0.5555555219999988  0.0277777780000008  0.0000000000000000
  0.5555555219999988  0.1111111120000032  0.0000000000000000
  0.5555555219999988  0.1944444330000010  0.0000000000000000
  0.5555555219999988  0.2777777610000030  0.0000000000000000
  0.5555555219999988  0.3611111339999979  0.0000000000000000
  0.5555555219999988  0.4444444479999987  0.0000000000000000
  0.5555555219999988  0.5277777909999983  0.0000000000000000
  0.5555555219999988  0.6111111040000026  0.0000000000000000
  0.5555555219999988  0.6944444180000033  0.0000000000000000
  0.5555555219999988  0.7777777310000005  0.0000000000000000
  0.5555555219999988  0.8611111040000026  0.0000000000000000
  0.5555555219999988  0.9444444180000033  0.0000000000000000
  0.6388888959999974  0.0277777780000008  0.0000000000000000
  0.6388888959999974  0.1111111120000032  0.0000000000000000
  0.6388888959999974  0.1944444330000010  0.0000000000000000
  0.6388888959999974  0.2777777610000030  0.0000000000000000
  0.6388888959999974  0.3611111339999979  0.0000000000000000
  0.6388888959999974  0.4444444479999987  0.0000000000000000
  0.6388888959999974  0.5277777909999983  0.0000000000000000
  0.6388888959999974  0.6111111040000026  0.0000000000000000
  0.6388888959999974  0.6944444180000033  0.0000000000000000
  0.6388888959999974  0.7777777310000005  0.0000000000000000
  0.6388888959999974  0.8611111040000026  0.0000000000000000
  0.6388888959999974  0.9444444180000033  0.0000000000000000
  0.7222222689999995  0.0277777780000008  0.0000000000000000
  0.7222222689999995  0.1111111120000032  0.0000000000000000
  0.7222222689999995  0.1944444330000010  0.0000000000000000
  0.7222222689999995  0.2777777610000030  0.0000000000000000
  0.7222222689999995  0.3611111339999979  0.0000000000000000
  0.7222222689999995  0.4444444479999987  0.0000000000000000
  0.7222222689999995  0.5277777909999983  0.0000000000000000
  0.7222222689999995  0.6111111040000026  0.0000000000000000
  0.7222222689999995  0.6944444180000033  0.0000000000000000
  0.7222222689999995  0.7777777310000005  0.0000000000000000
  0.7222222689999995  0.8611111040000026  0.0000000000000000
  0.7222222689999995  0.9444444180000033  0.0000000000000000
  0.8055555819999967  0.0277777780000008  0.0000000000000000
  0.8055555819999967  0.1111111120000032  0.0000000000000000
  0.8055555819999967  0.1944444330000010  0.0000000000000000
  0.8055555819999967  0.2777777610000030  0.0000000000000000
  0.8055555819999967  0.3611111339999979  0.0000000000000000
  0.8055555819999967  0.4444444479999987  0.0000000000000000
  0.8055555819999967  0.5277777909999983  0.0000000000000000
  0.8055555819999967  0.6111111040000026  0.0000000000000000
  0.8055555819999967  0.6944444180000033  0.0000000000000000
  0.8055555819999967  0.7777777310000005  0.0000000000000000
  0.8055555819999967  0.8611111040000026  0.0000000000000000
  0.8055555819999967  0.9444444180000033  0.0000000000000000
  0.8888888959999974  0.0277777780000008  0.0000000000000000
  0.8888888959999974  0.1111111120000032  0.0000000000000000
  0.8888888959999974  0.1944444330000010  0.0000000000000000
  0.8888888959999974  0.2777777610000030  0.0000000000000000
  0.8888888959999974  0.3611111339999979  0.0000000000000000
  0.8888888959999974  0.4444444479999987  0.0000000000000000
  0.8888888959999974  0.5277777909999983  0.0000000000000000
  0.8888888959999974  0.6111111040000026  0.0000000000000000
  0.8888888959999974  0.6944444180000033  0.0000000000000000
  0.8888888959999974  0.7777777310000005  0.0000000000000000
  0.8888888959999974  0.8611111040000026  0.0000000000000000
  0.8888888959999974  0.9444444180000033  0.0000000000000000
  0.9722222689999995  0.0277777780000008  0.0000000000000000
  0.9722222689999995  0.1111111120000032  0.0000000000000000
  0.9722222689999995  0.1944444330000010  0.0000000000000000
  0.9722222689999995  0.2777777610000030  0.0000000000000000
  0.9722222689999995  0.3611111339999979  0.0000000000000000
  0.9722222689999995  0.4444444479999987  0.0000000000000000
  0.9722222689999995  0.5277777909999983  0.0000000000000000
  0.9722222689999995  0.6111111040000026  0.0000000000000000
  0.9722222689999995  0.6944444180000033  0.0000000000000000
  0.9722222689999995  0.7777777310000005  0.0000000000000000
  0.9722222689999995  0.8611111040000026  0.0000000000000000
 
  0.00000000E+00  0.00000000E+00  0.00000000E+00
  0.00000000E+00  0.00000000E+00  0.00000000E+00
  0.00000000E+00  0.00000000E+00  0.00000000E+00
  0.00000000E+00  0.00000000E+00  0.00000000E+00
  0.00000000E+00  0.00000000E+00  0.00000000E+00
  0.00000000E+00  0.00000000E+00  0.00000000E+00
  0.00000000E+00  0.00000000E+00  0.00000000E+00
  0.00000000E+00  0.00000000E+00  0.00000000E+00
  0.00000000E+00  0.00000000E+00  0.00000000E+00
  0.00000000E+00  0.00000000E+00  0.00000000E+00
  0.00000000E+00  0.00000000E+00  0.00000000E+00
  0.00000000E+00  0.00000000E+00  0.00000000E+00
  0.00000000E+00  0.00000000E+00  0.00000000E+00
  0.00000000E+00  0.00000000E+00  0.00000000E+00
  0.00000000E+00  0.00000000E+00  0.00000000E+00
  0.00000000E+00  0.00000000E+00  0.00000000E+00
  0.00000000E+00  0.00000000E+00  0.00000000E+00
  0.00000000E+00  0.00000000E+00  0.00000000E+00
  0.00000000E+00  0.00000000E+00  0.00000000E+00
  0.00000000E+00  0.00000000E+00  0.00000000E+00
  0.00000000E+00  0.00000000E+00  0.00000000E+00
  0.00000000E+00  0.00000000E+00  0.00000000E+00
  0.00000000E+00  0.00000000E+00  0.00000000E+00
  0.00000000E+00  0.00000000E+00  0.00000000E+00
  0.00000000E+00  0.00000000E+00  0.00000000E+00
  0.00000000E+00  0.00000000E+00  0.00000000E+00
  0.00000000E+00  0.00000000E+00  0.00000000E+00
  0.00000000E+00  0.00000000E+00  0.00000000E+00
  0.00000000E+00  0.00000000E+00  0.00000000E+00
  0.00000000E+00  0.00000000E+00  0.00000000E+00
  0.00000000E+00  0.00000000E+00  0.00000000E+00
  0.00000000E+00  0.00000000E+00  0.00000000E+00
  0.00000000E+00  0.00000000E+00  0.00000000E+00
  0.00000000E+00  0.00000000E+00  0.00000000E+00
  0.00000000E+00  0.00000000E+00  0.00000000E+00
  0.00000000E+00  0.00000000E+00  0.00000000E+00
  0.00000000E+00  0.00000000E+00  0.00000000E+00
  0.00000000E+00  0.00000000E+00  0.00000000E+00
  0.00000000E+00  0.00000000E+00  0.00000000E+00
  0.00000000E+00  0.00000000E+00  0.00000000E+00
  0.00000000E+00  0.00000000E+00  0.00000000E+00
  0.00000000E+00  0.00000000E+00  0.00000000E+00
  0.00000000E+00  0.00000000E+00  0.00000000E+00
  0.00000000E+00  0.00000000E+00  0.00000000E+00
  0.00000000E+00  0.00000000E+00  0.00000000E+00
  0.00000000E+00  0.00000000E+00  0.00000000E+00
  0.00000000E+00  0.00000000E+00  0.00000000E+00
  0.00000000E+00  0.00000000E+00  0.00000000E+00
  0.00000000E+00  0.00000000E+00  0.00000000E+00
  0.00000000E+00  0.00000000E+00  0.00000000E+00
  0.00000000E+00  0.00000000E+00  0.00000000E+00
  0.00000000E+00  0.00000000E+00  0.00000000E+00
  0.00000000E+00  0.00000000E+00  0.00000000E+00
  0.00000000E+00  0.00000000E+00  0.00000000E+00
  0.00000000E+00  0.00000000E+00  0.00000000E+00
  0.00000000E+00  0.00000000E+00  0.00000000E+00
  0.00000000E+00  0.00000000E+00  0.00000000E+00
  0.00000000E+00  0.00000000E+00  0.00000000E+00
  0.00000000E+00  0.00000000E+00  0.00000000E+00
  0.00000000E+00  0.00000000E+00  0.00000000E+00
  0.00000000E+00  0.00000000E+00  0.00000000E+00
  0.00000000E+00  0.00000000E+00  0.00000000E+00
  0.00000000E+00  0.00000000E+00  0.00000000E+00
  0.00000000E+00  0.00000000E+00  0.00000000E+00
  0.00000000E+00  0.00000000E+00  0.00000000E+00
  0.00000000E+00  0.00000000E+00  0.00000000E+00
  0.00000000E+00  0.00000000E+00  0.00000000E+00
  0.00000000E+00  0.00000000E+00  0.00000000E+00
  0.00000000E+00  0.00000000E+00  0.00000000E+00
  0.00000000E+00  0.00000000E+00  0.00000000E+00
  0.00000000E+00  0.00000000E+00  0.00000000E+00
  0.00000000E+00  0.00000000E+00  0.00000000E+00
  0.00000000E+00  0.00000000E+00  0.00000000E+00
  0.00000000E+00  0.00000000E+00  0.00000000E+00
  0.00000000E+00  0.00000000E+00  0.00000000E+00
  0.00000000E+00  0.00000000E+00  0.00000000E+00
  0.00000000E+00  0.00000000E+00  0.00000000E+00
  0.00000000E+00  0.00000000E+00  0.00000000E+00
  0.00000000E+00  0.00000000E+00  0.00000000E+00
  0.00000000E+00  0.00000000E+00  0.00000000E+00
  0.00000000E+00  0.00000000E+00  0.00000000E+00
  0.00000000E+00  0.00000000E+00  0.00000000E+00
  0.00000000E+00  0.00000000E+00  0.00000000E+00
  0.00000000E+00  0.00000000E+00  0.00000000E+00
  0.00000000E+00  0.00000000E+00  0.00000000E+00
  0.00000000E+00  0.00000000E+00  0.00000000E+00
  0.00000000E+00  0.00000000E+00  0.00000000E+00
  0.00000000E+00  0.00000000E+00  0.00000000E+00
  0.00000000E+00  0.00000000E+00  0.00000000E+00
  0.00000000E+00  0.00000000E+00  0.00000000E+00
  0.00000000E+00  0.00000000E+00  0.00000000E+00
  0.00000000E+00  0.00000000E+00  0.00000000E+00
  0.00000000E+00  0.00000000E+00  0.00000000E+00
  0.00000000E+00  0.00000000E+00  0.00000000E+00
  0.00000000E+00  0.00000000E+00  0.00000000E+00
  0.00000000E+00  0.00000000E+00  0.00000000E+00
  0.00000000E+00  0.00000000E+00  0.00000000E+00
  0.00000000E+00  0.00000000E+00  0.00000000E+00
  0.00000000E+00  0.00000000E+00  0.00000000E+00
  0.00000000E+00  0.00000000E+00  0.00000000E+00
  0.00000000E+00  0.00000000E+00  0.00000000E+00
  0.00000000E+00  0.00000000E+00  0.00000000E+00
  0.00000000E+00  0.00000000E+00  0.00000000E+00
  0.00000000E+00  0.00000000E+00  0.00000000E+00
  0.00000000E+00  0.00000000E+00  0.00000000E+00
  0.00000000E+00  0.00000000E+00  0.00000000E+00
  0.00000000E+00  0.00000000E+00  0.00000000E+00
  0.00000000E+00  0.00000000E+00  0.00000000E+00
  0.00000000E+00  0.00000000E+00  0.00000000E+00
  0.00000000E+00  0.00000000E+00  0.00000000E+00
  0.00000000E+00  0.00000000E+00  0.00000000E+00
  0.00000000E+00  0.00000000E+00  0.00000000E+00
  0.00000000E+00  0.00000000E+00  0.00000000E+00
  0.00000000E+00  0.00000000E+00  0.00000000E+00
  0.00000000E+00  0.00000000E+00  0.00000000E+00
  0.00000000E+00  0.00000000E+00  0.00000000E+00
  0.00000000E+00  0.00000000E+00  0.00000000E+00
  0.00000000E+00  0.00000000E+00  0.00000000E+00
  0.00000000E+00  0.00000000E+00  0.00000000E+00
  0.00000000E+00  0.00000000E+00  0.00000000E+00
  0.00000000E+00  0.00000000E+00  0.00000000E+00
  0.00000000E+00  0.00000000E+00  0.00000000E+00
  0.00000000E+00  0.00000000E+00  0.00000000E+00
  0.00000000E+00  0.00000000E+00  0.00000000E+00
  0.00000000E+00  0.00000000E+00  0.00000000E+00
  0.00000000E+00  0.00000000E+00  0.00000000E+00
  0.00000000E+00  0.00000000E+00  0.00000000E+00
  0.00000000E+00  0.00000000E+00  0.00000000E+00
  0.00000000E+00  0.00000000E+00  0.00000000E+00
  0.00000000E+00  0.00000000E+00  0.00000000E+00
  0.00000000E+00  0.00000000E+00  0.00000000E+00
  0.00000000E+00  0.00000000E+00  0.00000000E+00
  0.00000000E+00  0.00000000E+00  0.00000000E+00
  0.00000000E+00  0.00000000E+00  0.00000000E+00
  0.00000000E+00  0.00000000E+00  0.00000000E+00
  0.00000000E+00  0.00000000E+00  0.00000000E+00
  0.00000000E+00  0.00000000E+00  0.00000000E+00
  0.00000000E+00  0.00000000E+00  0.00000000E+00
  0.00000000E+00  0.00000000E+00  0.00000000E+00
  0.00000000E+00  0.00000000E+00  0.00000000E+00
  0.00000000E+00  0.00000000E+00  0.00000000E+00
  0.00000000E+00  0.00000000E+00  0.00000000E+00
  0.00000000E+00  0.00000000E+00  0.00000000E+00
  0.00000000E+00  0.00000000E+00  0.00000000E+00
  0.00000000E+00  0.00000000E+00  0.00000000E+00
  0.00000000E+00  0.00000000E+00  0.00000000E+00
  0.00000000E+00  0.00000000E+00  0.00000000E+00
  0.00000000E+00  0.00000000E+00  0.00000000E+00
  0.00000000E+00  0.00000000E+00  0.00000000E+00
  0.00000000E+00  0.00000000E+00  0.00000000E+00
  0.00000000E+00  0.00000000E+00  0.00000000E+00
  0.00000000E+00  0.00000000E+00  0.00000000E+00
  0.00000000E+00  0.00000000E+00  0.00000000E+00
  0.00000000E+00  0.00000000E+00  0.00000000E+00
  0.00000000E+00  0.00000000E+00  0.00000000E+00
  0.00000000E+00  0.00000000E+00  0.00000000E+00
  0.00000000E+00  0.00000000E+00  0.00000000E+00
  0.00000000E+00  0.00000000E+00  0.00000000E+00
  0.00000000E+00  0.00000000E+00  0.00000000E+00
  0.00000000E+00  0.00000000E+00  0.00000000E+00
  0.00000000E+00  0.00000000E+00  0.00000000E+00
  0.00000000E+00  0.00000000E+00  0.00000000E+00
  0.00000000E+00  0.00000000E+00  0.00000000E+00
  0.00000000E+00  0.00000000E+00  0.00000000E+00
  0.00000000E+00  0.00000000E+00  0.00000000E+00
  0.00000000E+00  0.00000000E+00  0.00000000E+00
  0.00000000E+00  0.00000000E+00  0.00000000E+00
  0.00000000E+00  0.00000000E+00  0.00000000E+00
  0.00000000E+00  0.00000000E+00  0.00000000E+00
  0.00000000E+00  0.00000000E+00  0.00000000E+00
  0.00000000E+00  0.00000000E+00  0.00000000E+00
  0.00000000E+00  0.00000000E+00  0.00000000E+00
  0.00000000E+00  0.00000000E+00  0.00000000E+00
  0.00000000E+00  0.00000000E+00  0.00000000E+00
  0.00000000E+00  0.00000000E+00  0.00000000E+00
  0.00000000E+00  0.00000000E+00  0.00000000E+00
  0.00000000E+00  0.00000000E+00  0.00000000E+00
  0.00000000E+00  0.00000000E+00  0.00000000E+00
  0.00000000E+00  0.00000000E+00  0.00000000E+00
  0.00000000E+00  0.00000000E+00  0.00000000E+00
  0.00000000E+00  0.00000000E+00  0.00000000E+00
  0.00000000E+00  0.00000000E+00  0.00000000E+00
  0.00000000E+00  0.00000000E+00  0.00000000E+00
  0.00000000E+00  0.00000000E+00  0.00000000E+00
  0.00000000E+00  0.00000000E+00  0.00000000E+00
  0.00000000E+00  0.00000000E+00  0.00000000E+00
  0.00000000E+00  0.00000000E+00  0.00000000E+00
  0.00000000E+00  0.00000000E+00  0.00000000E+00
  0.00000000E+00  0.00000000E+00  0.00000000E+00
  0.00000000E+00  0.00000000E+00  0.00000000E+00
  0.00000000E+00  0.00000000E+00  0.00000000E+00
  0.00000000E+00  0.00000000E+00  0.00000000E+00
  0.00000000E+00  0.00000000E+00  0.00000000E+00
  0.00000000E+00  0.00000000E+00  0.00000000E+00
  0.00000000E+00  0.00000000E+00  0.00000000E+00
  0.00000000E+00  0.00000000E+00  0.00000000E+00
  0.00000000E+00  0.00000000E+00  0.00000000E+00
  0.00000000E+00  0.00000000E+00  0.00000000E+00
  0.00000000E+00  0.00000000E+00  0.00000000E+00
  0.00000000E+00  0.00000000E+00  0.00000000E+00
  0.00000000E+00  0.00000000E+00  0.00000000E+00
  0.00000000E+00  0.00000000E+00  0.00000000E+00
  0.00000000E+00  0.00000000E+00  0.00000000E+00
  0.00000000E+00  0.00000000E+00  0.00000000E+00
  0.00000000E+00  0.00000000E+00  0.00000000E+00
  0.00000000E+00  0.00000000E+00  0.00000000E+00
  0.00000000E+00  0.00000000E+00  0.00000000E+00
  0.00000000E+00  0.00000000E+00  0.00000000E+00
  0.00000000E+00  0.00000000E+00  0.00000000E+00
  0.00000000E+00  0.00000000E+00  0.00000000E+00
  0.00000000E+00  0.00000000E+00  0.00000000E+00
  0.00000000E+00  0.00000000E+00  0.00000000E+00
  0.00000000E+00  0.00000000E+00  0.00000000E+00
  0.00000000E+00  0.00000000E+00  0.00000000E+00
  0.00000000E+00  0.00000000E+00  0.00000000E+00
  0.00000000E+00  0.00000000E+00  0.00000000E+00
  0.00000000E+00  0.00000000E+00  0.00000000E+00
  0.00000000E+00  0.00000000E+00  0.00000000E+00
  0.00000000E+00  0.00000000E+00  0.00000000E+00
  0.00000000E+00  0.00000000E+00  0.00000000E+00
  0.00000000E+00  0.00000000E+00  0.00000000E+00
  0.00000000E+00  0.00000000E+00  0.00000000E+00
  0.00000000E+00  0.00000000E+00  0.00000000E+00
  0.00000000E+00  0.00000000E+00  0.00000000E+00
  0.00000000E+00  0.00000000E+00  0.00000000E+00
  0.00000000E+00  0.00000000E+00  0.00000000E+00
  0.00000000E+00  0.00000000E+00  0.00000000E+00
  0.00000000E+00  0.00000000E+00  0.00000000E+00
  0.00000000E+00  0.00000000E+00  0.00000000E+00
  0.00000000E+00  0.00000000E+00  0.00000000E+00
  0.00000000E+00  0.00000000E+00  0.00000000E+00
  0.00000000E+00  0.00000000E+00  0.00000000E+00
  0.00000000E+00  0.00000000E+00  0.00000000E+00
  0.00000000E+00  0.00000000E+00  0.00000000E+00
  0.00000000E+00  0.00000000E+00  0.00000000E+00
  0.00000000E+00  0.00000000E+00  0.00000000E+00
  0.00000000E+00  0.00000000E+00  0.00000000E+00
  0.00000000E+00  0.00000000E+00  0.00000000E+00
  0.00000000E+00  0.00000000E+00  0.00000000E+00
  0.00000000E+00  0.00000000E+00  0.00000000E+00
  0.00000000E+00  0.00000000E+00  0.00000000E+00
  0.00000000E+00  0.00000000E+00  0.00000000E+00
  0.00000000E+00  0.00000000E+00  0.00000000E+00
  0.00000000E+00  0.00000000E+00  0.00000000E+00
  0.00000000E+00  0.00000000E+00  0.00000000E+00
  0.00000000E+00  0.00000000E+00  0.00000000E+00
  0.00000000E+00  0.00000000E+00  0.00000000E+00
  0.00000000E+00  0.00000000E+00  0.00000000E+00